(set-info :smt-lib-version 2.6)
(set-logic QF_UF)
(set-info :source |
Generated by: Aman Goel (amangoel@umich.edu), Karem A. Sakallah (karem@umich.edu)
Generated on: 2018-04-06

Generated by the tool Averroes 2 (successor of [1]) which implements safety property
verification on hardware systems.

This SMT problem belongs to a set of SMT problems generated by applying Averroes 2
to benchmarks derived from [2-5].

A total of 412 systems (345 from [2], 19 from [3], 26 from [4], 22 from [5]) were
syntactically converted from their original formats (using [6, 7]), and given to 
Averroes 2 to perform property checking with abstraction (wide bit-vectors -> terms, 
wide operators -> UF) using SMT solvers [8, 9].

[1] Lee S., Sakallah K.A. (2014) Unbounded Scalable Verification Based on Approximate
Property-Directed Reachability and Datapath Abstraction. In: Biere A., Bloem R. (eds)
Computer Aided Verification. CAV 2014. Lecture Notes in Computer Science, vol 8559.
Springer, Cham
[2] http://fmv.jku.at/aiger/index.html#beem
[3] http://www.cs.cmu.edu/~modelcheck/vcegar
[4] http://www.cprover.org/hardware/v2c
[5] http://github.com/aman-goel/verilogbench
[6] http://www.clifford.at/yosys
[7] http://github.com/chengyinwu/V3
[8] http://github.com/Z3Prover/z3
[9] http://github.com/SRI-CSL/yices2

id: elevator.1.prop1
query-maker: "Yices 2"
query-time: 0.001000 ms
query-class: abstract
query-category: oneshot
query-type: regular
status: unsat
|)
(set-info :license "https://creativecommons.org/licenses/by/4.0/")
(set-info :category "industrial")

;
(set-info :status unsat)
(declare-sort utt$8 0)
(declare-sort utt$32 0)
(declare-fun y$1 () Bool)
(declare-fun y$11 () Bool)
(declare-fun y$13 () Bool)
(declare-fun y$15 () Bool)
(declare-fun y$17 () Bool)
(declare-fun y$1752 () Bool)
(declare-fun y$1753 () Bool)
(declare-fun y$1798 () Bool)
(declare-fun y$1807 () Bool)
(declare-fun y$19 () Bool)
(declare-fun y$21 () Bool)
(declare-fun y$23 () Bool)
(declare-fun y$25 () Bool)
(declare-fun y$28 () Bool)
(declare-fun y$3 () Bool)
(declare-fun y$30 () Bool)
(declare-fun y$32 () Bool)
(declare-fun y$34 () Bool)
(declare-fun y$36 () Bool)
(declare-fun y$38 () Bool)
(declare-fun y$40 () Bool)
(declare-fun y$42 () Bool)
(declare-fun y$44 () Bool)
(declare-fun y$46 () Bool)
(declare-fun y$48 () Bool)
(declare-fun y$5 () Bool)
(declare-fun y$50 () Bool)
(declare-fun y$52 () Bool)
(declare-fun y$54 () Bool)
(declare-fun y$56 () Bool)
(declare-fun y$58 () Bool)
(declare-fun y$60 () Bool)
(declare-fun y$62 () Bool)
(declare-fun y$64 () Bool)
(declare-fun y$66 () Bool)
(declare-fun y$68 () Bool)
(declare-fun y$7 () Bool)
(declare-fun y$70 () Bool)
(declare-fun y$72 () Bool)
(declare-fun y$9 () Bool)
(declare-fun y$a_choose_next () Bool)
(declare-fun y$a_in_elevator_Person_0 () Bool)
(declare-fun y$a_in_elevator_Person_1 () Bool)
(declare-fun y$a_move_next () Bool)
(declare-fun y$a_out_Person_0 () Bool)
(declare-fun y$a_out_Person_1 () Bool)
(declare-fun y$a_q_Elevator () Bool)
(declare-fun y$a_q_Servis () Bool)
(declare-fun y$a_r () Bool)
(declare-fun y$a_transporting () Bool)
(declare-fun y$a_waiting_Person_0 () Bool)
(declare-fun y$a_waiting_Person_1 () Bool)
(declare-fun y$dve_invalid () Bool)
(declare-fun y$id39 () Bool)
(declare-fun y$id39_op () Bool)
(declare-fun y$n0s8 () utt$8)
(declare-fun y$n1s32 () utt$32)
(declare-fun y$n1s8 () utt$8)
(declare-fun y$n2s8 () utt$8)
(declare-fun y$n3s8 () utt$8)
(declare-fun y$n4s8 () utt$8)
(declare-fun y$n5s32 () utt$32)
(declare-fun y$prop () Bool)
(declare-fun y$v3_1517448494_37 () Bool)
(declare-fun y$v3_1517448494_37_op () Bool)
(declare-fun y$v_at_floor_Person_0 () utt$8)
(declare-fun y$v_at_floor_Person_1 () utt$8)
(declare-fun y$v_caller () utt$8)
(declare-fun y$v_current () utt$8)
(declare-fun y$v_floor () utt$8)
(declare-fun y$v_floor_queue_0_0 () utt$8)
(declare-fun y$v_floor_queue_0_1 () utt$8)
(declare-fun y$v_floor_queue_0_act () utt$8)
(declare-fun y$v_floor_queue_1_0 () utt$8)
(declare-fun y$v_floor_queue_1_1 () utt$8)
(declare-fun y$v_floor_queue_1_act () utt$8)
(declare-fun y$v_floor_queue_2_0 () utt$8)
(declare-fun y$v_floor_queue_2_1 () utt$8)
(declare-fun y$v_floor_queue_2_act () utt$8)
(declare-fun y$v_floor_queue_3_0 () utt$8)
(declare-fun y$v_floor_queue_3_1 () utt$8)
(declare-fun y$v_floor_queue_3_act () utt$8)
(declare-fun y$v_floor_queue_4_0 () utt$8)
(declare-fun y$v_floor_queue_4_1 () utt$8)
(declare-fun y$v_floor_queue_4_act () utt$8)
(declare-fun y$v_going_to () utt$8)
(declare-fun y$v_serving () utt$8)
(declare-fun y$v_who () utt$8)
(assert (distinct y$n0s8 y$n1s8 y$n4s8 y$n3s8 y$n2s8))
(assert (not (= y$n1s32 y$n5s32)))
(assert (= y$a_choose_next (not y$1)))
(assert (= y$a_in_elevator_Person_0 (not y$3)))
(assert (= y$a_in_elevator_Person_1 (not y$5)))
(assert (= y$a_move_next (not y$7)))
(assert (= y$a_out_Person_0 (not y$9)))
(assert (= y$a_out_Person_1 (not y$11)))
(assert (= y$a_q_Elevator (not y$13)))
(assert (= y$a_q_Servis (not y$15)))
(assert (= y$a_r (not y$17)))
(assert (= y$a_transporting (not y$19)))
(assert (= y$a_waiting_Person_0 (not y$21)))
(assert (= y$a_waiting_Person_1 (not y$23)))
(assert (= y$dve_invalid (not y$25)))
(assert (= y$28 (= y$n0s8 y$v_at_floor_Person_0)))
(assert (= y$30 (= y$n0s8 y$v_at_floor_Person_1)))
(assert (= y$32 (= y$n0s8 y$v_caller)))
(assert (= y$34 (= y$n0s8 y$v_current)))
(assert (= y$36 (= y$n0s8 y$v_floor)))
(assert (= y$38 (= y$n0s8 y$v_floor_queue_0_0)))
(assert (= y$40 (= y$n0s8 y$v_floor_queue_0_1)))
(assert (= y$42 (= y$n0s8 y$v_floor_queue_0_act)))
(assert (= y$44 (= y$n0s8 y$v_floor_queue_1_0)))
(assert (= y$46 (= y$n0s8 y$v_floor_queue_1_1)))
(assert (= y$48 (= y$n0s8 y$v_floor_queue_1_act)))
(assert (= y$50 (= y$n0s8 y$v_floor_queue_2_0)))
(assert (= y$52 (= y$n0s8 y$v_floor_queue_2_1)))
(assert (= y$54 (= y$n0s8 y$v_floor_queue_2_act)))
(assert (= y$56 (= y$n0s8 y$v_floor_queue_3_0)))
(assert (= y$58 (= y$n0s8 y$v_floor_queue_3_1)))
(assert (= y$60 (= y$n0s8 y$v_floor_queue_3_act)))
(assert (= y$62 (= y$n0s8 y$v_floor_queue_4_0)))
(assert (= y$64 (= y$n0s8 y$v_floor_queue_4_1)))
(assert (= y$66 (= y$n0s8 y$v_floor_queue_4_act)))
(assert (= y$68 (= y$n0s8 y$v_going_to)))
(assert (= y$70 (= y$n0s8 y$v_serving)))
(assert (= y$72 (= y$n0s8 y$v_who)))
(assert (= y$prop (not y$1798)))
(assert (= y$v3_1517448494_37_op (and y$a_in_elevator_Person_0 y$a_in_elevator_Person_1)))
(assert (= y$id39_op (and y$25 y$v3_1517448494_37_op)))
(assert (= y$id39_op (not y$1752)))
(assert (= y$1753 (= y$prop y$1752)))
(assert (= y$1807 (and y$1 y$3 y$5 y$7 y$9 y$11 y$13 y$15 y$17 y$19 y$21 y$23 y$25 y$28 y$30 y$32 y$34 y$36 y$38 y$40 y$42 y$44 y$46 y$48 y$50 y$52 y$54 y$56 y$58 y$60 y$62 y$64 y$66 y$68 y$70 y$72 y$1798 y$1753)))
(assert y$1807)
(check-sat)
(exit)
